# set
set V := C1 C2 C3 C4 C5 ;
set F := F6 F7 F8 F9 F6_1 F6_2 F7_1 F7_2 F8_1 F8_2 F9_1 F9_2 ;
set D0 := N0;
set Dσ := Nσ;

# param
param Cf := 200;		# ECV fixed cost
param C := 700;		# ECV max load
param Q := 77.75;		# ECV/BSV battery level
param r := 1;		# ECV consumption

param Cr := 100;		# recharging cost
param Ct := 10;		# travel cost
param Cs ;		# battery swap cost
param n := 5;		# number of customers
param g := 10.41;	# recharging rate

param m :=
N0 0
C1 10
C2 20
C3 10
C4 10
C5 20
F6 0
F6_1 0
F6_2 0
F7 0
F7_1 0
F7_2 0
F8 0
F8_1 0
F8_2 0
F9 0
F9_1 0
F9_2 0
Nσ 0
;

param e :=
N0 0
C1 666
C2 1078
C3 1745
C4 2701
C5 15
F6 0
F6_1 0
F6_2 0
F7 0
F7_1 0
F7_2 0
F8 0
F8_1 0
F8_2 0
F9 0
F9_1 0
F9_2 0
Nσ 0
;

param l :=
N0 3390
C1 1245
C2 1593
C3 2240
C4 3258
C5 607
F6 3390
F6_1 3390
F6_2 3390
F7 3390
F7_1 3390
F7_2 3390
F8 3390
F8_1 3390
F8_2 3390
F9 3390
F9_1 3390
F9_2 3390
Nσ 3390
;

param s :=
N0 0
C1 90
C2 90
C3 90
C4 90
C5 90
F6 0
F6_1 0
F6_2 0
F7 0
F7_1 0
F7_2 0
F8 0
F8_1 0
F8_2 0
F9 0
F9_1 0
F9_2 0
Nσ 0
;

param d : N0 C1 C2 C3 C4 C5 F6 F6_1 F6_2 F7 F7_1 F7_2 F8 F8_1 F8_2 F9 F9_1 F9_2 Nσ  :=
N0 0.0000 38.0789 45.1774 31.0483 32.3883 15.8114 0.0000 0.0000 0.0000 37.2022 37.2022 37.2022 24.0208 24.0208 24.0208 41.6773 41.6773 41.6773 0.0000
C1 38.0789 0.0000 49.2037 30.8869 67.7422 50.0000 38.0789 38.0789 38.0789 8.6023 8.6023 8.6023 35.1710 35.1710 35.1710 59.8080 59.8080 59.8080 38.0789
C2 45.1774 49.2037 0.0000 19.2094 48.8262 60.0083 45.1774 45.1774 45.1774 41.0488 41.0488 41.0488 21.5870 21.5870 21.5870 19.2354 19.2354 19.2354 45.1774
C3 31.0483 30.8869 19.2094 0.0000 47.1699 46.8402 31.0483 31.0483 31.0483 23.4094 23.4094 23.4094 9.2195 9.2195 9.2195 29.6142 29.6142 29.6142 31.0483
C4 32.3883 67.7422 48.8262 47.1699 0.0000 33.6006 32.3883 32.3883 32.3883 64.2884 64.2884 64.2884 38.0789 38.0789 38.0789 32.8938 32.8938 32.8938 32.3883
C5 15.8114 50.0000 60.0083 46.8402 33.6006 0.0000 15.8114 15.8114 15.8114 50.9313 50.9313 50.9313 39.4588 39.4588 39.4588 53.4509 53.4509 53.4509 15.8114
F6 0.0000 38.0789 45.1774 31.0483 32.3883 15.8114 0.0000 0.0000 0.0000 37.2022 37.2022 37.2022 24.0208 24.0208 24.0208 41.6773 41.6773 41.6773 0.0000
F6_1 0.0000 38.0789 45.1774 31.0483 32.3883 15.8114 0.0000 0.0000 0.0000 37.2022 37.2022 37.2022 24.0208 24.0208 24.0208 41.6773 41.6773 41.6773 0.0000
F6_2 0.0000 38.0789 45.1774 31.0483 32.3883 15.8114 0.0000 0.0000 0.0000 37.2022 37.2022 37.2022 24.0208 24.0208 24.0208 41.6773 41.6773 41.6773 0.0000
F7 37.2022 8.6023 41.0488 23.4094 64.2884 50.9313 37.2022 37.2022 37.2022 0.0000 0.0000 0.0000 29.0689 29.0689 29.0689 52.8867 52.8867 52.8867 37.2022
F7_1 37.2022 8.6023 41.0488 23.4094 64.2884 50.9313 37.2022 37.2022 37.2022 0.0000 0.0000 0.0000 29.0689 29.0689 29.0689 52.8867 52.8867 52.8867 37.2022
F7_2 37.2022 8.6023 41.0488 23.4094 64.2884 50.9313 37.2022 37.2022 37.2022 0.0000 0.0000 0.0000 29.0689 29.0689 29.0689 52.8867 52.8867 52.8867 37.2022
F8 24.0208 35.1710 21.5870 9.2195 38.0789 39.4588 24.0208 24.0208 24.0208 29.0689 29.0689 29.0689 0.0000 0.0000 0.0000 25.0599 25.0599 25.0599 24.0208
F8_1 24.0208 35.1710 21.5870 9.2195 38.0789 39.4588 24.0208 24.0208 24.0208 29.0689 29.0689 29.0689 0.0000 0.0000 0.0000 25.0599 25.0599 25.0599 24.0208
F8_2 24.0208 35.1710 21.5870 9.2195 38.0789 39.4588 24.0208 24.0208 24.0208 29.0689 29.0689 29.0689 0.0000 0.0000 0.0000 25.0599 25.0599 25.0599 24.0208
F9 41.6773 59.8080 19.2354 29.6142 32.8938 53.4509 41.6773 41.6773 41.6773 52.8867 52.8867 52.8867 25.0599 25.0599 25.0599 0.0000 0.0000 0.0000 41.6773
F9_1 41.6773 59.8080 19.2354 29.6142 32.8938 53.4509 41.6773 41.6773 41.6773 52.8867 52.8867 52.8867 25.0599 25.0599 25.0599 0.0000 0.0000 0.0000 41.6773
F9_2 41.6773 59.8080 19.2354 29.6142 32.8938 53.4509 41.6773 41.6773 41.6773 52.8867 52.8867 52.8867 25.0599 25.0599 25.0599 0.0000 0.0000 0.0000 41.6773
Nσ 0.0000 38.0789 45.1774 31.0483 32.3883 15.8114 0.0000 0.0000 0.0000 37.2022 37.2022 37.2022 24.0208 24.0208 24.0208 41.6773 41.6773 41.6773 0.0000
;

param t : N0 C1 C2 C3 C4 C5 F6 F6_1 F6_2 F7 F7_1 F7_2 F8 F8_1 F8_2 F9 F9_1 F9_2 Nσ  :=
N0 0.0000 38.0789 45.1774 31.0483 32.3883 15.8114 0.0000 0.0000 0.0000 37.2022 37.2022 37.2022 24.0208 24.0208 24.0208 41.6773 41.6773 41.6773 0.0000
C1 38.0789 0.0000 49.2037 30.8869 67.7422 50.0000 38.0789 38.0789 38.0789 8.6023 8.6023 8.6023 35.1710 35.1710 35.1710 59.8080 59.8080 59.8080 38.0789
C2 45.1774 49.2037 0.0000 19.2094 48.8262 60.0083 45.1774 45.1774 45.1774 41.0488 41.0488 41.0488 21.5870 21.5870 21.5870 19.2354 19.2354 19.2354 45.1774
C3 31.0483 30.8869 19.2094 0.0000 47.1699 46.8402 31.0483 31.0483 31.0483 23.4094 23.4094 23.4094 9.2195 9.2195 9.2195 29.6142 29.6142 29.6142 31.0483
C4 32.3883 67.7422 48.8262 47.1699 0.0000 33.6006 32.3883 32.3883 32.3883 64.2884 64.2884 64.2884 38.0789 38.0789 38.0789 32.8938 32.8938 32.8938 32.3883
C5 15.8114 50.0000 60.0083 46.8402 33.6006 0.0000 15.8114 15.8114 15.8114 50.9313 50.9313 50.9313 39.4588 39.4588 39.4588 53.4509 53.4509 53.4509 15.8114
F6 0.0000 38.0789 45.1774 31.0483 32.3883 15.8114 0.0000 0.0000 0.0000 37.2022 37.2022 37.2022 24.0208 24.0208 24.0208 41.6773 41.6773 41.6773 0.0000
F6_1 0.0000 38.0789 45.1774 31.0483 32.3883 15.8114 0.0000 0.0000 0.0000 37.2022 37.2022 37.2022 24.0208 24.0208 24.0208 41.6773 41.6773 41.6773 0.0000
F6_2 0.0000 38.0789 45.1774 31.0483 32.3883 15.8114 0.0000 0.0000 0.0000 37.2022 37.2022 37.2022 24.0208 24.0208 24.0208 41.6773 41.6773 41.6773 0.0000
F7 37.2022 8.6023 41.0488 23.4094 64.2884 50.9313 37.2022 37.2022 37.2022 0.0000 0.0000 0.0000 29.0689 29.0689 29.0689 52.8867 52.8867 52.8867 37.2022
F7_1 37.2022 8.6023 41.0488 23.4094 64.2884 50.9313 37.2022 37.2022 37.2022 0.0000 0.0000 0.0000 29.0689 29.0689 29.0689 52.8867 52.8867 52.8867 37.2022
F7_2 37.2022 8.6023 41.0488 23.4094 64.2884 50.9313 37.2022 37.2022 37.2022 0.0000 0.0000 0.0000 29.0689 29.0689 29.0689 52.8867 52.8867 52.8867 37.2022
F8 24.0208 35.1710 21.5870 9.2195 38.0789 39.4588 24.0208 24.0208 24.0208 29.0689 29.0689 29.0689 0.0000 0.0000 0.0000 25.0599 25.0599 25.0599 24.0208
F8_1 24.0208 35.1710 21.5870 9.2195 38.0789 39.4588 24.0208 24.0208 24.0208 29.0689 29.0689 29.0689 0.0000 0.0000 0.0000 25.0599 25.0599 25.0599 24.0208
F8_2 24.0208 35.1710 21.5870 9.2195 38.0789 39.4588 24.0208 24.0208 24.0208 29.0689 29.0689 29.0689 0.0000 0.0000 0.0000 25.0599 25.0599 25.0599 24.0208
F9 41.6773 59.8080 19.2354 29.6142 32.8938 53.4509 41.6773 41.6773 41.6773 52.8867 52.8867 52.8867 25.0599 25.0599 25.0599 0.0000 0.0000 0.0000 41.6773
F9_1 41.6773 59.8080 19.2354 29.6142 32.8938 53.4509 41.6773 41.6773 41.6773 52.8867 52.8867 52.8867 25.0599 25.0599 25.0599 0.0000 0.0000 0.0000 41.6773
F9_2 41.6773 59.8080 19.2354 29.6142 32.8938 53.4509 41.6773 41.6773 41.6773 52.8867 52.8867 52.8867 25.0599 25.0599 25.0599 0.0000 0.0000 0.0000 41.6773
Nσ 0.0000 38.0789 45.1774 31.0483 32.3883 15.8114 0.0000 0.0000 0.0000 37.2022 37.2022 37.2022 24.0208 24.0208 24.0208 41.6773 41.6773 41.6773 0.0000
;
